coords = array2d(1..38, 1..2, [803, 962, 294, 345, 903, 836, 782, 257, 505,
    907, 67, 256, 704, 478, 499, 4, 351, 742, 473, 553, 173, 396, 170,
    645, 1, 56, 472, 474, 822, 430, 210, 597, 166, 540, 181, 636, 795,
    264, 129, 551, 652, 593, 781, 48, 841, 903, 672, 496, 503, 58,
    585, 652, 672, 370, 532, 348, 514, 790, 105, 525, 710, 136, 301,
    374, 799, 361, 722, 748, 55, 539, 296, 777, 234, 403, 576, 855]);

n = 38;

